examples/Knap/data/easy/input60_4.txt
ITEM 74 84
ITEM 47 57
ITEM 55 65
ITEM 95 105
ITEM 16 26
ITEM 74 84
ITEM 93 103
ITEM 49 59
ITEM 69 79
ITEM 7 17
ITEM 48 58
ITEM 59 69
ITEM 57 67
ITEM 91 101
ITEM 20 30
ITEM 85 95
ITEM 52 62
ITEM 32 42
ITEM 99 109
ITEM 76 86
ITEM 35 45
ITEM 57 67
ITEM 35 45
ITEM 32 42
ITEM 79 89
ITEM 65 75
ITEM 93 103
ITEM 98 108
ITEM 17 27
ITEM 11 21
ITEM 65 75
ITEM 90 100
ITEM 58 68
ITEM 21 31
ITEM 85 95
ITEM 73 83
ITEM 95 105
ITEM 79 89
ITEM 22 32
ITEM 64 74
ITEM 86 96
ITEM 70 80
ITEM 24 34
ITEM 43 53
ITEM 61 71
ITEM 44 54
ITEM 28 38
ITEM 14 24
ITEM 75 85
ITEM 27 37
ITEM 90 100
ITEM 11 21
ITEM 84 94
ITEM 25 35
ITEM 42 52
ITEM 63 73
ITEM 90 100
ITEM 36 46
ITEM 62 72
ITEM 7 17
CAPACITY 1006
